(set-option :produce-models true)
(set-logic QF_UF)
(declare-fun p18() Bool)
(declare-fun p20() Bool)
(declare-fun p4() Bool)
(declare-fun p24() Bool)
(declare-fun p5() Bool)
(declare-fun p10() Bool)
(declare-fun p14() Bool)
(declare-fun p12() Bool)
(declare-fun p17() Bool)
(declare-fun p3() Bool)
(declare-fun p0() Bool)
(declare-fun p19() Bool)
(declare-fun p13() Bool)
(declare-fun p22() Bool)
(declare-fun p21() Bool)
(declare-fun p23() Bool)
(declare-fun p7() Bool)
(declare-fun p27() Bool)
(declare-fun p9() Bool)
(declare-fun p11() Bool)
(declare-fun p6() Bool)
(declare-fun p1() Bool)
(declare-fun p29() Bool)
(declare-fun p2() Bool)
(declare-fun p25() Bool)
(declare-fun p16() Bool)
(declare-fun p15() Bool)
(declare-fun p26() Bool)
(declare-fun p28() Bool)
(declare-fun p8() Bool)
(assert
(and (or p18 p20 (not p4)) (or p20 (not p24) p5) (or p10 (not p14) p12) (or (not p5) (not p17) p3) (or p0 (not p14) (not p19)) (or (not p13) p22 p14) (or (not p21) p23 p7) (or (not p19) (not p7) (not p19)) (or (not p10) p27 p12) (or (not p9) p11 (not p6)) (or (not p14) (not p12) (not p11)) (or p22 (not p7) p1) (or p14 p24 (not p6)) (or p6 p22 (not p0)) (or p23 (not p22) p18) (or (not p6) (not p22) (not p19)) (or (not p6) p17 (not p29)) (or (not p20) p20 p2) (or p14 p22 (not p6)) (or (not p18) p24 (not p7)) (or p19 p4 p4) (or p17 (not p6) p2) (or (not p23) (not p25) (not p9)) (or (not p4) p27 p3) (or (not p16) (not p27) p25) (or p11 p7 p6) (or (not p17) (not p24) (not p5)) (or p19 (not p20) (not p17)) (or (not p24) (not p13) (not p17)) (or p15 (not p0) p9) (or p24 (not p4) p20) (or (not p22) p24 p17) (or (not p26) p23 p15) (or p7 (not p13) p1) (or p7 p19 p13) (or (not p12) p3 p5) (or (not p7) p17 (not p28)) (or (not p26) p13 (not p20)) (or (not p4) (not p11) (not p14)) (or p20 (not p1) p22) (or p1 (not p17) p11) (or p5 (not p2) p5) (or (not p14) (not p14) p20) (or (not p12) (not p29) (not p14)) (or (not p13) p5 p22) (or p26 p4 (not p21)) (or p2 (not p28) (not p24)) (or p24 p7 (not p16)) (or p25 p15 p18) (or (not p6) p6 (not p7)) (or p22 (not p20) p10) (or p28 p7 p8) (or (not p19) (not p22) (not p28)) (or (not p17) p12 (not p13)) (or (not p25) (not p5) (not p12)) (or (not p7) p18 p28) (or p5 p1 (not p15)) (or p16 (not p16) p25) (or (not p21) (not p17) (not p5)) (or (not p3) (not p1) p10) (or (not p21) p16 p23) (or (not p3) (not p10) (not p29)) (or (not p11) (not p23) p20) (or (not p14) p11 p29) (or (not p25) p5 (not p15)) (or (not p25) (not p3) (not p10)) (or (not p3) p21 (not p8)) (or p1 p5 p22) (or p27 p22 (not p8)) (or (not p4) p5 (not p29)) (or p24 (not p0) (not p29)) (or (not p9) p6 p13) (or p20 p20 p16) (or p28 (not p2) p2) (or p1 p6 (not p12)) (or (not p13) (not p29) (not p9)) (or p1 p27 p21) (or p24 (not p8) p18) (or (not p1) (not p25) (not p1)) (or p29 p20 (not p9)) (or p22 p18 p15) (or (not p23) (not p27) p6) (or (not p8) (not p24) (not p11)) (or p20 (not p12) (not p24)) (or (not p11) (not p12) (not p28)) (or (not p23) p13 (not p2)) (or (not p25) (not p16) (not p5)) (or p15 p3 p26) (or p6 p18 (not p6)) (or (not p16) (not p6) (not p7)) (or p12 (not p15) (not p4)) (or p29 p5 p3) (or p5 (not p14) (not p8)) (or (not p22) (not p1) p4) (or p29 (not p22) p20) (or (not p5) (not p11) p12) (or (not p29) (not p17) p17) (or (not p25) p14 p8) (or (not p17) (not p4) p10) (or (not p23) (not p12) p22) (or (not p8) p7 (not p24)) (or p20 p6 (not p11)) (or p24 p24 p26) (or (not p21) (not p17) p12) (or (not p2) (not p16) (not p1)) (or p3 p16 (not p9)) (or p26 (not p16) (not p1)) (or (not p1) (not p4) p27) (or p25 (not p14) (not p1)) (or (not p1) (not p3) p1) (or p19 p14 (not p11)) (or (not p12) (not p21) p18) (or (not p17) p23 (not p16)) (or p6 p17 p18) (or p3 p13 (not p3)) (or (not p12) p18 (not p24)) (or (not p14) (not p10) p23) (or p8 p8 p0) (or (not p12) (not p1) p20) (or (not p22) p10 (not p8)) (or (not p4) p12 (not p18)) (or (not p29) p6 (not p23)) (or p12 (not p19) (not p25)) (or (not p17) (not p2) (not p19)) (or (not p9) (not p2) p5) (or (not p25) (not p4) p0) (or p12 p23 p20) (or (not p6) p28 p27))
)
(check-sat)
(get-model)
